3
BeH2 RHF/sto-3g point=1 bond_length_A=1.14860752106983 E_RHF_Ha=-15.54092303896709 status=PASS
Be 0.00000000000000 0.00000000000000 0.00000000000000
H 0.00000000000000 0.00000000000000 -1.14860752106983
H 0.00000000000000 0.00000000000000 1.14860752106983
3
BeH2 RHF/sto-3g point=2 bond_length_A=1.15839585899591 E_RHF_Ha=-15.543875015294624 status=PASS
Be 0.00000000000000 0.00000000000000 0.00000000000000
H 0.00000000000000 0.00000000000000 -1.15839585899591
H 0.00000000000000 0.00000000000000 1.15839585899591
3
BeH2 RHF/sto-3g point=3 bond_length_A=1.16818419692199 E_RHF_Ha=-15.546562816312676 status=PASS
Be 0.00000000000000 0.00000000000000 0.00000000000000
H 0.00000000000000 0.00000000000000 -1.16818419692199
H 0.00000000000000 0.00000000000000 1.16818419692199
3
BeH2 RHF/sto-3g point=4 bond_length_A=1.17797253484807 E_RHF_Ha=-15.548995912356306 status=PASS
Be 0.00000000000000 0.00000000000000 0.00000000000000
H 0.00000000000000 0.00000000000000 -1.17797253484807
H 0.00000000000000 0.00000000000000 1.17797253484807
3
BeH2 RHF/sto-3g point=5 bond_length_A=1.18776087277415 E_RHF_Ha=-15.551183422546572 status=PASS
Be 0.00000000000000 0.00000000000000 0.00000000000000
H 0.00000000000000 0.00000000000000 -1.18776087277415
H 0.00000000000000 0.00000000000000 1.18776087277415
3
BeH2 RHF/sto-3g point=6 bond_length_A=1.19754921070023 E_RHF_Ha=-15.553134128668116 status=PASS
Be 0.00000000000000 0.00000000000000 0.00000000000000
H 0.00000000000000 0.00000000000000 -1.19754921070023
H 0.00000000000000 0.00000000000000 1.19754921070023
3
BeH2 RHF/sto-3g point=7 bond_length_A=1.20733754862631 E_RHF_Ha=-15.55485648843112 status=PASS
Be 0.00000000000000 0.00000000000000 0.00000000000000
H 0.00000000000000 0.00000000000000 -1.20733754862631
H 0.00000000000000 0.00000000000000 1.20733754862631
3
BeH2 RHF/sto-3g point=8 bond_length_A=1.21712588655239 E_RHF_Ha=-15.55635864815539 status=PASS
Be 0.00000000000000 0.00000000000000 0.00000000000000
H 0.00000000000000 0.00000000000000 -1.21712588655239
H 0.00000000000000 0.00000000000000 1.21712588655239
3
BeH2 RHF/sto-3g point=9 bond_length_A=1.22691422447848 E_RHF_Ha=-15.557648454910193 status=PASS
Be 0.00000000000000 0.00000000000000 0.00000000000000
H 0.00000000000000 0.00000000000000 -1.22691422447848
H 0.00000000000000 0.00000000000000 1.22691422447848
3
BeH2 RHF/sto-3g point=10 bond_length_A=1.23670256240456 E_RHF_Ha=-15.55873346814231 status=PASS
Be 0.00000000000000 0.00000000000000 0.00000000000000
H 0.00000000000000 0.00000000000000 -1.23670256240456
H 0.00000000000000 0.00000000000000 1.23670256240456
3
BeH2 RHF/sto-3g point=11 bond_length_A=1.24649090033064 E_RHF_Ha=-15.559620970821877 status=PASS
Be 0.00000000000000 0.00000000000000 0.00000000000000
H 0.00000000000000 0.00000000000000 -1.24649090033064
H 0.00000000000000 0.00000000000000 1.24649090033064
3
BeH2 RHF/sto-3g point=12 bond_length_A=1.25627923825672 E_RHF_Ha=-15.560317980134364 status=PASS
Be 0.00000000000000 0.00000000000000 0.00000000000000
H 0.00000000000000 0.00000000000000 -1.25627923825672
H 0.00000000000000 0.00000000000000 1.25627923825672
3
BeH2 RHF/sto-3g point=13 bond_length_A=1.2660675761828 E_RHF_Ha=-15.560831257742734 status=PASS
Be 0.00000000000000 0.00000000000000 0.00000000000000
H 0.00000000000000 0.00000000000000 -1.26606757618280
H 0.00000000000000 0.00000000000000 1.26606757618280
3
BeH2 RHF/sto-3g point=14 bond_length_A=1.27585591410888 E_RHF_Ha=-15.561167319644214 status=PASS
Be 0.00000000000000 0.00000000000000 0.00000000000000
H 0.00000000000000 0.00000000000000 -1.27585591410888
H 0.00000000000000 0.00000000000000 1.27585591410888
3
BeH2 RHF/sto-3g point=15 bond_length_A=1.28564425203496 E_RHF_Ha=-15.561332445642943 status=PASS
Be 0.00000000000000 0.00000000000000 0.00000000000000
H 0.00000000000000 0.00000000000000 -1.28564425203496
H 0.00000000000000 0.00000000000000 1.28564425203496
3
BeH2 RHF/sto-3g point=16 bond_length_A=1.29543258996104 E_RHF_Ha=-15.561332688457734 status=PASS
Be 0.00000000000000 0.00000000000000 0.00000000000000
H 0.00000000000000 0.00000000000000 -1.29543258996104
H 0.00000000000000 0.00000000000000 1.29543258996104
3
BeH2 RHF/sto-3g point=17 bond_length_A=1.30522092788712 E_RHF_Ha=-15.561173882483494 status=PASS
Be 0.00000000000000 0.00000000000000 0.00000000000000
H 0.00000000000000 0.00000000000000 -1.30522092788712
H 0.00000000000000 0.00000000000000 1.30522092788712
3
BeH2 RHF/sto-3g point=18 bond_length_A=1.3150092658132 E_RHF_Ha=-15.56086165222222 status=PASS
Be 0.00000000000000 0.00000000000000 0.00000000000000
H 0.00000000000000 0.00000000000000 -1.31500926581320
H 0.00000000000000 0.00000000000000 1.31500926581320
3
BeH2 RHF/sto-3g point=19 bond_length_A=1.32479760373928 E_RHF_Ha=-15.560401420398719 status=PASS
Be 0.00000000000000 0.00000000000000 0.00000000000000
H 0.00000000000000 0.00000000000000 -1.32479760373928
H 0.00000000000000 0.00000000000000 1.32479760373928
3
BeH2 RHF/sto-3g point=20 bond_length_A=1.33458594166536 E_RHF_Ha=-15.559798415774997 status=PASS
Be 0.00000000000000 0.00000000000000 0.00000000000000
H 0.00000000000000 0.00000000000000 -1.33458594166536
H 0.00000000000000 0.00000000000000 1.33458594166536
3
BeH2 RHF/sto-3g point=21 bond_length_A=1.34437427959144 E_RHF_Ha=-15.559057680675737 status=PASS
Be 0.00000000000000 0.00000000000000 0.00000000000000
H 0.00000000000000 0.00000000000000 -1.34437427959144
H 0.00000000000000 0.00000000000000 1.34437427959144
3
BeH2 RHF/sto-3g point=22 bond_length_A=1.35416261751752 E_RHF_Ha=-15.558184078236124 status=PASS
Be 0.00000000000000 0.00000000000000 0.00000000000000
H 0.00000000000000 0.00000000000000 -1.35416261751752
H 0.00000000000000 0.00000000000000 1.35416261751752
3
BeH2 RHF/sto-3g point=23 bond_length_A=1.36395095544361 E_RHF_Ha=-15.557182299382854 status=PASS
Be 0.00000000000000 0.00000000000000 0.00000000000000
H 0.00000000000000 0.00000000000000 -1.36395095544361
H 0.00000000000000 0.00000000000000 1.36395095544361
3
BeH2 RHF/sto-3g point=24 bond_length_A=1.37373929336969 E_RHF_Ha=-15.556056869558212 status=PASS
Be 0.00000000000000 0.00000000000000 0.00000000000000
H 0.00000000000000 0.00000000000000 -1.37373929336969
H 0.00000000000000 0.00000000000000 1.37373929336969
3
BeH2 RHF/sto-3g point=25 bond_length_A=1.38352763129577 E_RHF_Ha=-15.5548121551961 status=PASS
Be 0.00000000000000 0.00000000000000 0.00000000000000
H 0.00000000000000 0.00000000000000 -1.38352763129577
H 0.00000000000000 0.00000000000000 1.38352763129577
3
BeH2 RHF/sto-3g point=26 bond_length_A=1.39331596922185 E_RHF_Ha=-15.553452369958205 status=PASS
Be 0.00000000000000 0.00000000000000 0.00000000000000
H 0.00000000000000 0.00000000000000 -1.39331596922185
H 0.00000000000000 0.00000000000000 1.39331596922185
3
BeH2 RHF/sto-3g point=27 bond_length_A=1.40310430714793 E_RHF_Ha=-15.55198158073863 status=PASS
Be 0.00000000000000 0.00000000000000 0.00000000000000
H 0.00000000000000 0.00000000000000 -1.40310430714793
H 0.00000000000000 0.00000000000000 1.40310430714793
3
BeH2 RHF/sto-3g point=28 bond_length_A=1.41289264507401 E_RHF_Ha=-15.55040371344415 status=PASS
Be 0.00000000000000 0.00000000000000 0.00000000000000
H 0.00000000000000 0.00000000000000 -1.41289264507401
H 0.00000000000000 0.00000000000000 1.41289264507401
3
BeH2 RHF/sto-3g point=29 bond_length_A=1.42268098300009 E_RHF_Ha=-15.548722558557305 status=PASS
Be 0.00000000000000 0.00000000000000 0.00000000000000
H 0.00000000000000 0.00000000000000 -1.42268098300009
H 0.00000000000000 0.00000000000000 1.42268098300009
3
BeH2 RHF/sto-3g point=30 bond_length_A=1.43246932092617 E_RHF_Ha=-15.546941776488701 status=PASS
Be 0.00000000000000 0.00000000000000 0.00000000000000
H 0.00000000000000 0.00000000000000 -1.43246932092617
H 0.00000000000000 0.00000000000000 1.43246932092617
