3
H2S RHF/sto-3g point=1 bond_length_A=1.20307019456166 E_RHF_Ha=-394.2844812416463 status=PASS
S 0.00000000000000 0.00000000000000 -0.60724641625242
H 0.86923499088086 0.00000000000000 0.22450380086265
H -0.86923499088086 0.00000000000000 0.22450380086265
3
H2S RHF/sto-3g point=2 bond_length_A=1.21173127554645 E_RHF_Ha=-394.2884199154658 status=PASS
S 0.00000000000000 0.00000000000000 -0.60760067123970
H 0.87549274266032 -0.00000000000000 0.23013743920206
H -0.87549274266032 -0.00000000000000 0.23013743920206
3
H2S RHF/sto-3g point=3 bond_length_A=1.22039235653123 E_RHF_Ha=-394.292002884842 status=PASS
S 0.00000000000000 0.00000000000000 -0.60795492622698
H 0.88175049443978 0.00000000000000 0.23577107754146
H -0.88175049443978 0.00000000000000 0.23577107754146
3
H2S RHF/sto-3g point=4 bond_length_A=1.22905343751602 E_RHF_Ha=-394.29524331095865 status=PASS
S -0.00000000000000 0.00000000000000 -0.60830918121427
H 0.88800824621924 0.00000000000000 0.24140471588086
H -0.88800824621924 0.00000000000000 0.24140471588086
3
H2S RHF/sto-3g point=5 bond_length_A=1.23771451850081 E_RHF_Ha=-394.29815388151144 status=PASS
S -0.00000000000000 0.00000000000000 -0.60866343620155
H 0.89426599799869 0.00000000000000 0.24703835422027
H -0.89426599799869 0.00000000000000 0.24703835422027
3
H2S RHF/sto-3g point=6 bond_length_A=1.2463755994856 E_RHF_Ha=-394.3007468281203 status=PASS
S 0.00000000000000 0.00000000000000 -0.60901769118883
H 0.90052374977815 0.00000000000000 0.25267199255967
H -0.90052374977815 0.00000000000000 0.25267199255967
3
H2S RHF/sto-3g point=7 bond_length_A=1.25503668047039 E_RHF_Ha=-394.3030339430951 status=PASS
S 0.00000000000000 0.00000000000000 -0.60937194617611
H 0.90678150155761 -0.00000000000000 0.25830563089907
H -0.90678150155761 -0.00000000000000 0.25830563089907
3
H2S RHF/sto-3g point=8 bond_length_A=1.26369776145518 E_RHF_Ha=-394.3050265955801 status=PASS
S -0.00000000000000 0.00000000000000 -0.60972620116339
H 0.91303925333707 0.00000000000000 0.26393926923848
H -0.91303925333707 0.00000000000000 0.26393926923848
3
H2S RHF/sto-3g point=9 bond_length_A=1.27235884243996 E_RHF_Ha=-394.30673574710033 status=PASS
S 0.00000000000000 0.00000000000000 -0.61008045615067
H 0.91929700511652 0.00000000000000 0.26957290757788
H -0.91929700511652 0.00000000000000 0.26957290757788
3
H2S RHF/sto-3g point=10 bond_length_A=1.28101992342475 E_RHF_Ha=-394.30817196654687 status=PASS
S -0.00000000000000 -0.00000000000000 -0.61043471113795
H 0.92555475689598 0.00000000000000 0.27520654591728
H -0.92555475689598 0.00000000000000 0.27520654591728
3
H2S RHF/sto-3g point=11 bond_length_A=1.28968100440954 E_RHF_Ha=-394.3093454446059 status=PASS
S 0.00000000000000 0.00000000000000 -0.61078896612523
H 0.93181250867544 -0.00000000000000 0.28084018425668
H -0.93181250867544 -0.00000000000000 0.28084018425668
3
H2S RHF/sto-3g point=12 bond_length_A=1.29834208539433 E_RHF_Ha=-394.3102660076686 status=PASS
S 0.00000000000000 0.00000000000000 -0.61114322111252
H 0.93807026045490 -0.00000000000000 0.28647382259609
H -0.93807026045490 -0.00000000000000 0.28647382259609
3
H2S RHF/sto-3g point=13 bond_length_A=1.30700316637912 E_RHF_Ha=-394.3109431312353 status=PASS
S 0.00000000000000 -0.00000000000000 -0.61149747609980
H 0.94432801223436 0.00000000000000 0.29210746093549
H -0.94432801223436 0.00000000000000 0.29210746093549
3
H2S RHF/sto-3g point=14 bond_length_A=1.3156642473639 E_RHF_Ha=-394.3113859528365 status=PASS
S -0.00000000000000 0.00000000000000 -0.61185173108708
H 0.95058576401381 0.00000000000000 0.29774109927490
H -0.95058576401381 0.00000000000000 0.29774109927490
3
H2S RHF/sto-3g point=15 bond_length_A=1.32432532834869 E_RHF_Ha=-394.31160328448027 status=PASS
S 0.00000000000000 0.00000000000000 -0.61220598607436
H 0.95684351579327 0.00000000000000 0.30337473761430
H -0.95684351579327 0.00000000000000 0.30337473761430
3
H2S RHF/sto-3g point=16 bond_length_A=1.33298640933348 E_RHF_Ha=-394.3116036246654 status=PASS
S -0.00000000000000 0.00000000000000 -0.61256024106164
H 0.96310126757273 0.00000000000000 0.30900837595370
H -0.96310126757273 0.00000000000000 0.30900837595370
3
H2S RHF/sto-3g point=17 bond_length_A=1.34164749031827 E_RHF_Ha=-394.31139516994807 status=PASS
S 0.00000000000000 0.00000000000000 -0.61291449604892
H 0.96935901935219 -0.00000000000000 0.31464201429310
H -0.96935901935219 -0.00000000000000 0.31464201429310
3
H2S RHF/sto-3g point=18 bond_length_A=1.35030857130306 E_RHF_Ha=-394.3109858260998 status=PASS
S 0.00000000000000 0.00000000000000 -0.61326875103620
H 0.97561677113164 -0.00000000000000 0.32027565263251
H -0.97561677113164 -0.00000000000000 0.32027565263251
3
H2S RHF/sto-3g point=19 bond_length_A=1.35896965228785 E_RHF_Ha=-394.31038321886393 status=PASS
S -0.00000000000000 0.00000000000000 -0.61362300602348
H 0.98187452291110 0.00000000000000 0.32590929097191
H -0.98187452291110 0.00000000000000 0.32590929097191
3
H2S RHF/sto-3g point=20 bond_length_A=1.36763073327263 E_RHF_Ha=-394.30959470432333 status=PASS
S -0.00000000000000 -0.00000000000000 -0.61397726101077
H 0.98813227469056 0.00000000000000 0.33154292931131
H -0.98813227469056 0.00000000000000 0.33154292931131
3
H2S RHF/sto-3g point=21 bond_length_A=1.37629181425742 E_RHF_Ha=-394.3086273788948 status=PASS
S -0.00000000000000 0.00000000000000 -0.61433151599805
H 0.99439002647002 0.00000000000000 0.33717656765072
H -0.99439002647002 0.00000000000000 0.33717656765072
3
H2S RHF/sto-3g point=22 bond_length_A=1.38495289524221 E_RHF_Ha=-394.307488088968 status=PASS
S -0.00000000000000 0.00000000000000 -0.61468577098533
H 1.00064777824948 0.00000000000000 0.34281020599012
H -1.00064777824948 0.00000000000000 0.34281020599012
3
H2S RHF/sto-3g point=23 bond_length_A=1.393613976227 E_RHF_Ha=-394.3061834401876 status=PASS
S 0.00000000000000 0.00000000000000 -0.61504002597261
H 1.00690553002893 0.00000000000000 0.34844384432952
H -1.00690553002893 0.00000000000000 0.34844384432952
3
H2S RHF/sto-3g point=24 bond_length_A=1.40227505721179 E_RHF_Ha=-394.30471980640914 status=PASS
S 0.00000000000000 0.00000000000000 -0.61539428095989
H 1.01316328180839 0.00000000000000 0.35407748266893
H -1.01316328180839 0.00000000000000 0.35407748266893
3
H2S RHF/sto-3g point=25 bond_length_A=1.41093613819658 E_RHF_Ha=-394.3031033383253 status=PASS
S -0.00000000000000 0.00000000000000 -0.61574853594717
H 1.01942103358785 0.00000000000000 0.35971112100833
H -1.01942103358785 0.00000000000000 0.35971112100833
3
H2S RHF/sto-3g point=26 bond_length_A=1.41959721918136 E_RHF_Ha=-394.3013399717787 status=PASS
S 0.00000000000000 0.00000000000000 -0.61610279093445
H 1.02567878536731 0.00000000000000 0.36534475934774
H -1.02567878536731 0.00000000000000 0.36534475934774
3
H2S RHF/sto-3g point=27 bond_length_A=1.42825830016615 E_RHF_Ha=-394.2994354357746 status=PASS
S -0.00000000000000 0.00000000000000 -0.61645704592173
H 1.03193653714676 0.00000000000000 0.37097839768714
H -1.03193653714676 0.00000000000000 0.37097839768714
3
H2S RHF/sto-3g point=28 bond_length_A=1.43691938115094 E_RHF_Ha=-394.2973952601987 status=PASS
S 0.00000000000000 0.00000000000000 -0.61681130090902
H 1.03819428892622 -0.00000000000000 0.37661203602654
H -1.03819428892622 -0.00000000000000 0.37661203602654
3
H2S RHF/sto-3g point=29 bond_length_A=1.44558046213573 E_RHF_Ha=-394.2952247832567 status=PASS
S 0.00000000000000 0.00000000000000 -0.61716555589630
H 1.04445204070568 0.00000000000000 0.38224567436594
H -1.04445204070568 0.00000000000000 0.38224567436594
3
H2S RHF/sto-3g point=30 bond_length_A=1.45424154312052 E_RHF_Ha=-394.29292915863437 status=PASS
S 0.00000000000000 -0.00000000000000 -0.61751981088358
H 1.05070979248514 0.00000000000000 0.38787931270535
H -1.05070979248514 0.00000000000000 0.38787931270535
