3
H2O RHF/sto-3g point=1 bond_length_A=0.876681981646366 E_RHF_Ha=-74.93059529602398 status=PASS
O -0.00000000000000 -0.00000000000000 -0.41576230352174
H 0.67170878061062 0.00000000000000 0.14760135433524
H -0.67170878061062 0.00000000000000 0.14760135433524
3
H2O RHF/sto-3g point=2 bond_length_A=0.884456270938703 E_RHF_Ha=-74.93578587880853 status=PASS
O 0.00000000000000 0.00000000000000 -0.41632137032555
H 0.67766539713747 0.00000000000000 0.15203811514585
H -0.67766539713747 0.00000000000000 0.15203811514585
3
H2O RHF/sto-3g point=3 bond_length_A=0.89223056023104 E_RHF_Ha=-74.94049097171276 status=PASS
O 0.00000000000000 0.00000000000000 -0.41688043712936
H 0.68362201366433 0.00000000000000 0.15647487595645
H -0.68362201366433 0.00000000000000 0.15647487595645
3
H2O RHF/sto-3g point=4 bond_length_A=0.900004849523377 E_RHF_Ha=-74.94473168236937 status=PASS
O -0.00000000000000 0.00000000000000 -0.41743950393317
H 0.68957863019118 0.00000000000000 0.16091163676705
H -0.68957863019118 0.00000000000000 0.16091163676705
3
H2O RHF/sto-3g point=5 bond_length_A=0.907779138815714 E_RHF_Ha=-74.94852811124593 status=PASS
O -0.00000000000000 -0.00000000000000 -0.41799857073698
H 0.69553524671803 0.00000000000000 0.16534839757766
H -0.69553524671803 0.00000000000000 0.16534839757766
3
H2O RHF/sto-3g point=6 bond_length_A=0.91555342810805 E_RHF_Ha=-74.95189941102619 status=PASS
O -0.00000000000000 0.00000000000000 -0.41855763754079
H 0.70149186324489 0.00000000000000 0.16978515838826
H -0.70149186324489 0.00000000000000 0.16978515838826
3
H2O RHF/sto-3g point=7 bond_length_A=0.923327717400387 E_RHF_Ha=-74.95486384231535 status=PASS
O -0.00000000000000 0.00000000000000 -0.41911670434460
H 0.70744847977174 0.00000000000000 0.17422191919887
H -0.70744847977174 0.00000000000000 0.17422191919887
3
H2O RHF/sto-3g point=8 bond_length_A=0.931102006692724 E_RHF_Ha=-74.95743882584242 status=PASS
O 0.00000000000000 0.00000000000000 -0.41967577114841
H 0.71340509629860 0.00000000000000 0.17865868000947
H -0.71340509629860 0.00000000000000 0.17865868000947
3
H2O RHF/sto-3g point=9 bond_length_A=0.938876295985061 E_RHF_Ha=-74.95964099132408 status=PASS
O -0.00000000000000 0.00000000000000 -0.42023483795223
H 0.71936171282545 0.00000000000000 0.18309544082007
H -0.71936171282545 0.00000000000000 0.18309544082007
3
H2O RHF/sto-3g point=10 bond_length_A=0.946650585277398 E_RHF_Ha=-74.96148622315772 status=PASS
O 0.00000000000000 0.00000000000000 -0.42079390475604
H 0.72531832935230 0.00000000000000 0.18753220163068
H -0.72531832935230 0.00000000000000 0.18753220163068
3
H2O RHF/sto-3g point=11 bond_length_A=0.954424874569734 E_RHF_Ha=-74.96298970310141 status=PASS
O 0.00000000000000 0.00000000000000 -0.42135297155985
H 0.73127494587916 0.00000000000000 0.19196896244128
H -0.73127494587916 0.00000000000000 0.19196896244128
3
H2O RHF/sto-3g point=12 bond_length_A=0.962199163862071 E_RHF_Ha=-74.96416595010471 status=PASS
O 0.00000000000000 0.00000000000000 -0.42191203836366
H 0.73723156240601 -0.00000000000000 0.19640572325189
H -0.73723156240601 -0.00000000000000 0.19640572325189
3
H2O RHF/sto-3g point=13 bond_length_A=0.969973453154408 E_RHF_Ha=-74.96502885743963 status=PASS
O 0.00000000000000 0.00000000000000 -0.42247110516747
H 0.74318817893287 0.00000000000000 0.20084248406249
H -0.74318817893287 0.00000000000000 0.20084248406249
3
H2O RHF/sto-3g point=14 bond_length_A=0.977747742446745 E_RHF_Ha=-74.96559172728891 status=PASS
O -0.00000000000000 0.00000000000000 -0.42303017197128
H 0.74914479545972 -0.00000000000000 0.20527924487309
H -0.74914479545972 -0.00000000000000 0.20527924487309
3
H2O RHF/sto-3g point=15 bond_length_A=0.985522031739081 E_RHF_Ha=-74.96586730293654 status=PASS
O 0.00000000000000 0.00000000000000 -0.42358923877509
H 0.75510141198657 0.00000000000000 0.20971600568370
H -0.75510141198657 0.00000000000000 0.20971600568370
3
H2O RHF/sto-3g point=16 bond_length_A=0.993296321031418 E_RHF_Ha=-74.96586779870815 status=PASS
O -0.00000000000000 -0.00000000000000 -0.42414830557891
H 0.76105802851343 0.00000000000000 0.21415276649430
H -0.76105802851343 0.00000000000000 0.21415276649430
3
H2O RHF/sto-3g point=17 bond_length_A=1.00107061032375 E_RHF_Ha=-74.96560492779813 status=PASS
O -0.00000000000000 0.00000000000000 -0.42470737238272
H 0.76701464504028 -0.00000000000000 0.21858952730491
H -0.76701464504028 -0.00000000000000 0.21858952730491
3
H2O RHF/sto-3g point=18 bond_length_A=1.00884489961609 E_RHF_Ha=-74.96508992812328 status=PASS
O -0.00000000000000 0.00000000000000 -0.42526643918653
H 0.77297126156713 0.00000000000000 0.22302628811551
H -0.77297126156713 0.00000000000000 0.22302628811551
3
H2O RHF/sto-3g point=19 bond_length_A=1.01661918890843 E_RHF_Ha=-74.96433358633298 status=PASS
O 0.00000000000000 0.00000000000000 -0.42582550599034
H 0.77892787809399 0.00000000000000 0.22746304892611
H -0.77892787809399 0.00000000000000 0.22746304892611
3
H2O RHF/sto-3g point=20 bond_length_A=1.02439347820077 E_RHF_Ha=-74.96334626010272 status=PASS
O 0.00000000000000 0.00000000000000 -0.42638457279415
H 0.78488449462084 0.00000000000000 0.23189980973672
H -0.78488449462084 0.00000000000000 0.23189980973672
3
H2O RHF/sto-3g point=21 bond_length_A=1.0321677674931 E_RHF_Ha=-74.96213789883434 status=PASS
O 0.00000000000000 0.00000000000000 -0.42694363959796
H 0.79084111114770 -0.00000000000000 0.23633657054732
H -0.79084111114770 -0.00000000000000 0.23633657054732
3
H2O RHF/sto-3g point=22 bond_length_A=1.03994205678544 E_RHF_Ha=-74.96071806288045 status=PASS
O 0.00000000000000 0.00000000000000 -0.42750270640177
H 0.79679772767455 -0.00000000000000 0.24077333135793
H -0.79679772767455 -0.00000000000000 0.24077333135793
3
H2O RHF/sto-3g point=23 bond_length_A=1.04771634607778 E_RHF_Ha=-74.95909594140201 status=PASS
O -0.00000000000000 0.00000000000000 -0.42806177320558
H 0.80275434420140 0.00000000000000 0.24521009216853
H -0.80275434420140 0.00000000000000 0.24521009216853
3
H2O RHF/sto-3g point=24 bond_length_A=1.05549063537011 E_RHF_Ha=-74.95728036897134 status=PASS
O -0.00000000000000 0.00000000000000 -0.42862084000940
H 0.80871096072826 0.00000000000000 0.24964685297913
H -0.80871096072826 0.00000000000000 0.24964685297913
3
H2O RHF/sto-3g point=25 bond_length_A=1.06326492466245 E_RHF_Ha=-74.95527984101592 status=PASS
O -0.00000000000000 0.00000000000000 -0.42917990681321
H 0.81466757725511 -0.00000000000000 0.25408361378974
H -0.81466757725511 -0.00000000000000 0.25408361378974
3
H2O RHF/sto-3g point=26 bond_length_A=1.07103921395479 E_RHF_Ha=-74.95310252820339 status=PASS
O -0.00000000000000 0.00000000000000 -0.42973897361702
H 0.82062419378197 0.00000000000000 0.25852037460034
H -0.82062419378197 0.00000000000000 0.25852037460034
3
H2O RHF/sto-3g point=27 bond_length_A=1.07881350324712 E_RHF_Ha=-74.95075628985705 status=PASS
O 0.00000000000000 0.00000000000000 -0.43029804042083
H 0.82658081030882 0.00000000000000 0.26295713541095
H -0.82658081030882 0.00000000000000 0.26295713541095
3
H2O RHF/sto-3g point=28 bond_length_A=1.08658779253946 E_RHF_Ha=-74.94824868648703 status=PASS
O -0.00000000000000 0.00000000000000 -0.43085710722464
H 0.83253742683567 0.00000000000000 0.26739389622155
H -0.83253742683567 0.00000000000000 0.26739389622155
3
H2O RHF/sto-3g point=29 bond_length_A=1.0943620818318 E_RHF_Ha=-74.9455869915157 status=PASS
O -0.00000000000000 0.00000000000000 -0.43141617402845
H 0.83849404336253 0.00000000000000 0.27183065703215
H -0.83849404336253 0.00000000000000 0.27183065703215
3
H2O RHF/sto-3g point=30 bond_length_A=1.10213637112413 E_RHF_Ha=-74.94277820227626 status=PASS
O 0.00000000000000 0.00000000000000 -0.43197524083226
H 0.84445065988938 0.00000000000000 0.27626741784276
H -0.84445065988938 0.00000000000000 0.27626741784276
