2
HF RHF/sto-3g point=1 bond_length_A=0.801790953348378 E_RHF_Ha=-98.5307719511332 status=PASS
H 0.00000000000000 0.00000000000000 -0.33180218115540
F 0.00000000000000 0.00000000000000 0.46998877219298
2
HF RHF/sto-3g point=2 bond_length_A=0.812389004745731 E_RHF_Ha=-98.53722266111241 status=PASS
H 0.00000000000000 0.00000000000000 -0.34186626171744
F 0.00000000000000 0.00000000000000 0.47052274302829
2
HF RHF/sto-3g point=3 bond_length_A=0.822987056143085 E_RHF_Ha=-98.54300636117621 status=PASS
H 0.00000000000000 0.00000000000000 -0.35193034227948
F 0.00000000000000 0.00000000000000 0.47105671386360
2
HF RHF/sto-3g point=4 bond_length_A=0.833585107540438 E_RHF_Ha=-98.54816362527447 status=PASS
H 0.00000000000000 0.00000000000000 -0.36199442284152
F 0.00000000000000 0.00000000000000 0.47159068469891
2
HF RHF/sto-3g point=5 bond_length_A=0.844183158937791 E_RHF_Ha=-98.55273226906885 status=PASS
H 0.00000000000000 0.00000000000000 -0.37205850340356
F 0.00000000000000 0.00000000000000 0.47212465553423
2
HF RHF/sto-3g point=6 bond_length_A=0.854781210335144 E_RHF_Ha=-98.55674759073393 status=PASS
H 0.00000000000000 0.00000000000000 -0.38212258396561
F 0.00000000000000 0.00000000000000 0.47265862636954
2
HF RHF/sto-3g point=7 bond_length_A=0.865379261732497 E_RHF_Ha=-98.56024258873789 status=PASS
H 0.00000000000000 0.00000000000000 -0.39218666452765
F 0.00000000000000 0.00000000000000 0.47319259720485
2
HF RHF/sto-3g point=8 bond_length_A=0.875977313129851 E_RHF_Ha=-98.5632481583459 status=PASS
H 0.00000000000000 0.00000000000000 -0.40225074508969
F 0.00000000000000 0.00000000000000 0.47372656804016
2
HF RHF/sto-3g point=9 bond_length_A=0.886575364527204 E_RHF_Ha=-98.56579326853112 status=PASS
H 0.00000000000000 0.00000000000000 -0.41231482565173
F 0.00000000000000 0.00000000000000 0.47426053887547
2
HF RHF/sto-3g point=10 bond_length_A=0.897173415924557 E_RHF_Ha=-98.56790512090173 status=PASS
H 0.00000000000000 0.00000000000000 -0.42237890621377
F 0.00000000000000 0.00000000000000 0.47479450971078
2
HF RHF/sto-3g point=11 bond_length_A=0.90777146732191 E_RHF_Ha=-98.56960929219986 status=PASS
H 0.00000000000000 0.00000000000000 -0.43244298677581
F 0.00000000000000 0.00000000000000 0.47532848054610
2
HF RHF/sto-3g point=12 bond_length_A=0.918369518719264 E_RHF_Ha=-98.57092986184449 status=PASS
H 0.00000000000000 0.00000000000000 -0.44250706733786
F 0.00000000000000 0.00000000000000 0.47586245138141
2
HF RHF/sto-3g point=13 bond_length_A=0.928967570116617 E_RHF_Ha=-98.57188952592935 status=PASS
H 0.00000000000000 0.00000000000000 -0.45257114789990
F 0.00000000000000 0.00000000000000 0.47639642221672
2
HF RHF/sto-3g point=14 bond_length_A=0.93956562151397 E_RHF_Ha=-98.57250969900664 status=PASS
H 0.00000000000000 0.00000000000000 -0.46263522846194
F 0.00000000000000 0.00000000000000 0.47693039305203
2
HF RHF/sto-3g point=15 bond_length_A=0.950163672911323 E_RHF_Ha=-98.57281060491054 status=PASS
H 0.00000000000000 0.00000000000000 -0.47269930902398
F 0.00000000000000 0.00000000000000 0.47746436388734
2
HF RHF/sto-3g point=16 bond_length_A=0.960761724308677 E_RHF_Ha=-98.57281135779867 status=PASS
H 0.00000000000000 0.00000000000000 -0.48276338958602
F 0.00000000000000 0.00000000000000 0.47799833472266
2
HF RHF/sto-3g point=17 bond_length_A=0.97135977570603 E_RHF_Ha=-98.57253003450964 status=PASS
H 0.00000000000000 0.00000000000000 -0.49282747014806
F 0.00000000000000 0.00000000000000 0.47853230555797
2
HF RHF/sto-3g point=18 bond_length_A=0.981957827103383 E_RHF_Ha=-98.57198373925344 status=PASS
H 0.00000000000000 0.00000000000000 -0.50289155071010
F 0.00000000000000 0.00000000000000 0.47906627639328
2
HF RHF/sto-3g point=19 bond_length_A=0.992555878500736 E_RHF_Ha=-98.57118866157383 status=PASS
H 0.00000000000000 0.00000000000000 -0.51295563127215
F 0.00000000000000 0.00000000000000 0.47960024722859
2
HF RHF/sto-3g point=20 bond_length_A=1.00315392989809 E_RHF_Ha=-98.57016012844346 status=PASS
H 0.00000000000000 0.00000000000000 -0.52301971183419
F 0.00000000000000 0.00000000000000 0.48013421806390
2
HF RHF/sto-3g point=21 bond_length_A=1.01375198129544 E_RHF_Ha=-98.56891265126995 status=PASS
H 0.00000000000000 0.00000000000000 -0.53308379239623
F 0.00000000000000 0.00000000000000 0.48066818889921
2
HF RHF/sto-3g point=22 bond_length_A=1.0243500326928 E_RHF_Ha=-98.56745996852575 status=PASS
H 0.00000000000000 0.00000000000000 -0.54314787295827
F 0.00000000000000 0.00000000000000 0.48120215973453
2
HF RHF/sto-3g point=23 bond_length_A=1.03494808409015 E_RHF_Ha=-98.56581508462875 status=PASS
H 0.00000000000000 0.00000000000000 -0.55321195352031
F 0.00000000000000 0.00000000000000 0.48173613056984
2
HF RHF/sto-3g point=24 bond_length_A=1.0455461354875 E_RHF_Ha=-98.56399030564549 status=PASS
H 0.00000000000000 0.00000000000000 -0.56327603408235
F 0.00000000000000 0.00000000000000 0.48227010140515
2
HF RHF/sto-3g point=25 bond_length_A=1.05614418688486 E_RHF_Ha=-98.56199727230678 status=PASS
H 0.00000000000000 0.00000000000000 -0.57334011464439
F 0.00000000000000 0.00000000000000 0.48280407224046
2
HF RHF/sto-3g point=26 bond_length_A=1.06674223828221 E_RHF_Ha=-98.55984699077402 status=PASS
H 0.00000000000000 0.00000000000000 -0.58340419520644
F 0.00000000000000 0.00000000000000 0.48333804307577
2
HF RHF/sto-3g point=27 bond_length_A=1.07734028967956 E_RHF_Ha=-98.5575498615318 status=PASS
H 0.00000000000000 0.00000000000000 -0.59346827576848
F 0.00000000000000 0.00000000000000 0.48387201391109
2
HF RHF/sto-3g point=28 bond_length_A=1.08793834107692 E_RHF_Ha=-98.55511570672488 status=PASS
H 0.00000000000000 0.00000000000000 -0.60353235633052
F 0.00000000000000 0.00000000000000 0.48440598474640
2
HF RHF/sto-3g point=29 bond_length_A=1.09853639247427 E_RHF_Ha=-98.55255379621205 status=PASS
H 0.00000000000000 0.00000000000000 -0.61359643689256
F 0.00000000000000 0.00000000000000 0.48493995558171
2
HF RHF/sto-3g point=30 bond_length_A=1.10913444387162 E_RHF_Ha=-98.5498728725585 status=PASS
H 0.00000000000000 0.00000000000000 -0.62366051745460
F 0.00000000000000 0.00000000000000 0.48547392641702
