2
N2 RHF/sto-3g point=1 bond_length_A=1.06029712024467 E_RHF_Ha=-107.47926667605111 status=PASS
N 0.00000000000000 0.00000000000000 -0.53014856012234
N 0.00000000000000 0.00000000000000 0.53014856012234
2
N2 RHF/sto-3g point=2 bond_length_A=1.06536980212394 E_RHF_Ha=-107.48232136629704 status=PASS
N 0.00000000000000 0.00000000000000 -0.53268490106197
N 0.00000000000000 0.00000000000000 0.53268490106197
2
N2 RHF/sto-3g point=3 bond_length_A=1.0704424840032 E_RHF_Ha=-107.48511120799563 status=PASS
N 0.00000000000000 0.00000000000000 -0.53522124200160
N 0.00000000000000 0.00000000000000 0.53522124200160
2
N2 RHF/sto-3g point=4 bond_length_A=1.07551516588247 E_RHF_Ha=-107.48764418539537 status=PASS
N 0.00000000000000 0.00000000000000 -0.53775758294123
N 0.00000000000000 0.00000000000000 0.53775758294123
2
N2 RHF/sto-3g point=5 bond_length_A=1.08058784776173 E_RHF_Ha=-107.48992806739469 status=PASS
N 0.00000000000000 0.00000000000000 -0.54029392388086
N 0.00000000000000 0.00000000000000 0.54029392388086
2
N2 RHF/sto-3g point=6 bond_length_A=1.08566052964099 E_RHF_Ha=-107.49197041305658 status=PASS
N 0.00000000000000 0.00000000000000 -0.54283026482050
N 0.00000000000000 0.00000000000000 0.54283026482050
2
N2 RHF/sto-3g point=7 bond_length_A=1.09073321152026 E_RHF_Ha=-107.4937785769808 status=PASS
N 0.00000000000000 0.00000000000000 -0.54536660576013
N 0.00000000000000 0.00000000000000 0.54536660576013
2
N2 RHF/sto-3g point=8 bond_length_A=1.09580589339952 E_RHF_Ha=-107.4953597145375 status=PASS
N 0.00000000000000 0.00000000000000 -0.54790294669976
N 0.00000000000000 0.00000000000000 0.54790294669976
2
N2 RHF/sto-3g point=9 bond_length_A=1.10087857527878 E_RHF_Ha=-107.49672078697107 status=PASS
N 0.00000000000000 0.00000000000000 -0.55043928763939
N 0.00000000000000 0.00000000000000 0.55043928763939
2
N2 RHF/sto-3g point=10 bond_length_A=1.10595125715805 E_RHF_Ha=-107.49786856636872 status=PASS
N 0.00000000000000 0.00000000000000 -0.55297562857902
N 0.00000000000000 0.00000000000000 0.55297562857902
2
N2 RHF/sto-3g point=11 bond_length_A=1.11102393903731 E_RHF_Ha=-107.49880964050536 status=PASS
N 0.00000000000000 0.00000000000000 -0.55551196951866
N 0.00000000000000 0.00000000000000 0.55551196951866
2
N2 RHF/sto-3g point=12 bond_length_A=1.11609662091658 E_RHF_Ha=-107.49955041756465 status=PASS
N 0.00000000000000 0.00000000000000 -0.55804831045829
N 0.00000000000000 0.00000000000000 0.55804831045829
2
N2 RHF/sto-3g point=13 bond_length_A=1.12116930279584 E_RHF_Ha=-107.50009713073806 status=PASS
N 0.00000000000000 0.00000000000000 -0.56058465139792
N 0.00000000000000 0.00000000000000 0.56058465139792
2
N2 RHF/sto-3g point=14 bond_length_A=1.1262419846751 E_RHF_Ha=-107.50045584271204 status=PASS
N 0.00000000000000 0.00000000000000 -0.56312099233755
N 0.00000000000000 0.00000000000000 0.56312099233755
2
N2 RHF/sto-3g point=15 bond_length_A=1.13131466655437 E_RHF_Ha=-107.50063245003729 status=PASS
N 0.00000000000000 0.00000000000000 -0.56565733327718
N 0.00000000000000 0.00000000000000 0.56565733327718
2
N2 RHF/sto-3g point=16 bond_length_A=1.13638734843363 E_RHF_Ha=-107.50063268738897 status=PASS
N 0.00000000000000 0.00000000000000 -0.56819367421682
N 0.00000000000000 0.00000000000000 0.56819367421682
2
N2 RHF/sto-3g point=17 bond_length_A=1.1414600303129 E_RHF_Ha=-107.50046213172013 status=PASS
N 0.00000000000000 0.00000000000000 -0.57073001515645
N 0.00000000000000 0.00000000000000 0.57073001515645
2
N2 RHF/sto-3g point=18 bond_length_A=1.14653271219216 E_RHF_Ha=-107.50012620631114 status=PASS
N 0.00000000000000 0.00000000000000 -0.57326635609608
N 0.00000000000000 0.00000000000000 0.57326635609608
2
N2 RHF/sto-3g point=19 bond_length_A=1.15160539407142 E_RHF_Ha=-107.49963018471493 status=PASS
N 0.00000000000000 0.00000000000000 -0.57580269703571
N 0.00000000000000 0.00000000000000 0.57580269703571
2
N2 RHF/sto-3g point=20 bond_length_A=1.15667807595069 E_RHF_Ha=-107.49897919460615 status=PASS
N 0.00000000000000 0.00000000000000 -0.57833903797534
N 0.00000000000000 0.00000000000000 0.57833903797534
2
N2 RHF/sto-3g point=21 bond_length_A=1.16175075782995 E_RHF_Ha=-107.49817822153258 status=PASS
N 0.00000000000000 0.00000000000000 -0.58087537891498
N 0.00000000000000 0.00000000000000 0.58087537891498
2
N2 RHF/sto-3g point=22 bond_length_A=1.16682343970922 E_RHF_Ha=-107.49723211257434 status=PASS
N 0.00000000000000 0.00000000000000 -0.58341171985461
N 0.00000000000000 0.00000000000000 0.58341171985461
2
N2 RHF/sto-3g point=23 bond_length_A=1.17189612158848 E_RHF_Ha=-107.49614557990935 status=PASS
N 0.00000000000000 0.00000000000000 -0.58594806079424
N 0.00000000000000 0.00000000000000 0.58594806079424
2
N2 RHF/sto-3g point=24 bond_length_A=1.17696880346774 E_RHF_Ha=-107.49492320429448 status=PASS
N 0.00000000000000 0.00000000000000 -0.58848440173387
N 0.00000000000000 0.00000000000000 0.58848440173387
2
N2 RHF/sto-3g point=25 bond_length_A=1.18204148534701 E_RHF_Ha=-107.4935694384564 status=PASS
N 0.00000000000000 0.00000000000000 -0.59102074267350
N 0.00000000000000 0.00000000000000 0.59102074267350
2
N2 RHF/sto-3g point=26 bond_length_A=1.18711416722627 E_RHF_Ha=-107.4920886104016 status=PASS
N 0.00000000000000 0.00000000000000 -0.59355708361314
N 0.00000000000000 0.00000000000000 0.59355708361314
2
N2 RHF/sto-3g point=27 bond_length_A=1.19218684910553 E_RHF_Ha=-107.49048492664369 status=PASS
N 0.00000000000000 0.00000000000000 -0.59609342455277
N 0.00000000000000 0.00000000000000 0.59609342455277
2
N2 RHF/sto-3g point=28 bond_length_A=1.1972595309848 E_RHF_Ha=-107.48876247535195 status=PASS
N 0.00000000000000 0.00000000000000 -0.59862976549240
N 0.00000000000000 0.00000000000000 0.59862976549240
2
N2 RHF/sto-3g point=29 bond_length_A=1.20233221286406 E_RHF_Ha=-107.48692522942248 status=PASS
N 0.00000000000000 0.00000000000000 -0.60116610643203
N 0.00000000000000 0.00000000000000 0.60116610643203
2
N2 RHF/sto-3g point=30 bond_length_A=1.20740489474333 E_RHF_Ha=-107.48497704947498 status=PASS
N 0.00000000000000 0.00000000000000 -0.60370244737166
N 0.00000000000000 0.00000000000000 0.60370244737166
